(set-logic ALL)
(set-option :produce-models true)
(declare-sort BoundSet 0)
(declare-sort UnboundSet 0)
(declare-fun IsInRedShirt (BoundSet) Bool)
(declare-fun IsFilmedBy (BoundSet BoundSet) Bool)
(declare-fun IsInFrontOf (BoundSet) Bool)
(assert (not (=> (exists ((a BoundSet)) (exists ((c BoundSet)) (exists ((b BoundSet)) (and (IsInRedShirt b) (and (IsFilmedBy b a) (IsInFrontOf c)))))) (exists ((a BoundSet)) (exists ((d BoundSet)) (IsFilmedBy d a))))))
(check-sat)
(get-model)